p cnf 10 42
-3 -7 -4 0
-8 2 -7 0
1 -9 7 0
-3 -5 -4 0
5 1 -8 0
10 -2 4 0
-2 -8 6 0
-4 3 10 0
-6 -9 10 0
-5 -6 8 0
-7 -4 -3 0
10 -3 -4 0
-9 10 3 0
-6 -4 -7 0
5 9 -10 0
-3 -10 4 0
-4 7 -8 0
10 -5 3 0
4 1 -5 0
5 -10 -4 0
5 -3 9 0
-1 -5 -6 0
5 10 9 0
8 -6 -5 0
9 8 -5 0
-4 6 10 0
2 -5 6 0
-10 4 6 0
5 6 -3 0
10 4 9 0
-3 8 -6 0
4 6 -8 0
10 9 7 0
9 -5 -3 0
-4 1 9 0
8 9 5 0
10 1 -7 0
7 -5 10 0
9 -10 4 0
-8 -2 1 0
-5 -1 -2 0
-7 -4 -8 0
